0
Node Left Objective IInf Best_Integer Best_Bound ItCnt Gap
0 0 43.0201 6 43.0201 54
0 0 44.1279 8 Cuts:9 71
0 0 46.6938 8 Cuts:21 87
0+ 0 nan nan 56.4455 46.6938 nan 17.28%
0 0 47.8254 8 56.4455 Cuts:17 105 15.27%
0 0 48.9377 7 56.4455 Cuts:19 121 13.30%
0 0 49.3871 8 56.4455 Cuts:13 139 12.50%
0+ 0 nan nan 52.9813 49.3871 nan 6.78%
0+ 0 nan nan 52.9813 49.3871 nan 6.78%
0 0 49.3871 8 52.9813 49.3871 210 6.78%
0 0 49.6399 7 52.9813 Cuts:8 228 6.31%
0 0 49.7845 7 52.9813 Cuts:18 242 6.03%
0 0 49.7966 7 52.9813 LiftProj:3 244 6.01%
0 0 50.0939 7 52.9813 Cuts:7 258 5.45%
0 0 50.5023 7 52.9813 LiftProj:5 262 4.68%
0 0 50.9468 7 52.9813 LiftProj:5 276 3.84%
0 0 51.0975 7 52.9813 Cuts:6 282 3.56%
0 0 51.2700 6 52.9813 Cuts:8 292 3.23%
0 0 51.3921 6 52.9813 Cuts:5 299 3.00%
0 0 51.4150 6 52.9813 Cuts:7 306 2.96%
0 0 51.4191 7 52.9813 LiftProj:2 310 2.95%
0 0 51.4307 6 52.9813 LiftProj:2 316 2.93%
0 0 51.8702 7 52.9813 Cuts:8 327 2.10%
0 0 52.6022 2 52.9813 LiftProj:2 346 0.72%
0 0 0 52.9813 52.6022 359 0.72%
0 0 52.9813 0 52.9813 52.9813 359 0.00%
CPXPARAM_MIP_Cuts_Gomory-Disjunctive-LiftProj-MIRCut:Gomory 0
CPXPARAM_MIP_Cuts_Gomory-Disjunctive-LiftProj-MIRCut:Disjunctive 8
CPXPARAM_MIP_Cuts_Gomory-Disjunctive-LiftProj-MIRCut:LiftProj 0
CPXPARAM_MIP_Cuts_Gomory-Disjunctive-LiftProj-MIRCut:MIRCut 0
1
Node Left Objective IInf Best_Integer Best_Bound ItCnt Gap
0 0 2.5600 6 2.5600 61
0 0 2.8244 6 Cuts:6 76
0 0 3.6302 6 Cuts:12 90
0+ 0 nan nan 11.3251 3.6302 nan 67.95%
0 0 4.0091 7 11.3251 Cuts:9 103 64.60%
0 0 4.7033 7 11.3251 Cuts:11 110 58.47%
0 0 5.2110 7 11.3251 Cuts:10 123 53.99%
0 0 5.2896 6 11.3251 LiftProj:1 130 53.29%
0 0 5.3308 7 11.3251 Cuts:2 137 52.93%
0 0 5.3820 7 11.3251 LiftProj:1 142 52.48%
0 0 5.4094 7 11.3251 Cuts:3 144 52.24%
0 0 5.4151 7 11.3251 LiftProj:2 149 52.18%
0 0 5.5072 6 11.3251 LiftProj:2 155 51.37%
0 0 5.6330 7 11.3251 LiftProj:1 160 50.26%
0 0 5.6476 7 11.3251 MIRcuts:1 162 50.13%
0 0 5.6477 7 11.3251 LiftProj:1 163 50.13%
0 0 5.6501 7 11.3251 LiftProj:1 164 50.11%
0 0 5.6502 7 11.3251 LiftProj:1 165 50.11%
0 2 5.6502 7 11.3251 5.6571 165 50.05%
CPXPARAM_MIP_Cuts_Gomory-Disjunctive-LiftProj-MIRCut:Gomory 1
CPXPARAM_MIP_Cuts_Gomory-Disjunctive-LiftProj-MIRCut:Disjunctive 9
CPXPARAM_MIP_Cuts_Gomory-Disjunctive-LiftProj-MIRCut:LiftProj 0
CPXPARAM_MIP_Cuts_Gomory-Disjunctive-LiftProj-MIRCut:MIRCut 2
2
Node Left Objective IInf Best_Integer Best_Bound ItCnt Gap
0 0 40.5363 2 40.5363 49
0 0 40.5363 2 Disjcuts:1 56
0+ 0 nan nan 40.6800 40.5363 nan 0.35%
0+ 0 nan nan 40.6800 40.5363 nan 0.35%
0 0 40.5363 2 40.6800 40.5363 104 0.35%
0 0 40.5363 2 40.6800 Fract:1 108 0.35%
0 0 40.5503 4 40.6800 Cuts:2 114 0.32%
0 0 cutoff 40.6800 119 0.00% 0 0
CPXPARAM_MIP_Cuts_Gomory-Disjunctive-LiftProj-MIRCut:Gomory 0
CPXPARAM_MIP_Cuts_Gomory-Disjunctive-LiftProj-MIRCut:Disjunctive 0
CPXPARAM_MIP_Cuts_Gomory-Disjunctive-LiftProj-MIRCut:LiftProj 0
CPXPARAM_MIP_Cuts_Gomory-Disjunctive-LiftProj-MIRCut:MIRCut 0
3
Node Left Objective IInf Best_Integer Best_Bound ItCnt Gap
0 0 6.4123 1 6.4123 41
0+ 0 nan nan 6.4123 6.4123 nan 0.00%
0 0 cutoff 6.4123 6.4123 41 0.00% 0
CPXPARAM_MIP_Cuts_Gomory-Disjunctive-LiftProj-MIRCut:Gomory 0
CPXPARAM_MIP_Cuts_Gomory-Disjunctive-LiftProj-MIRCut:Disjunctive 0
CPXPARAM_MIP_Cuts_Gomory-Disjunctive-LiftProj-MIRCut:LiftProj 0
CPXPARAM_MIP_Cuts_Gomory-Disjunctive-LiftProj-MIRCut:MIRCut 0
4
Node Left Objective IInf Best_Integer Best_Bound ItCnt Gap
0 0 50.7422 6 50.7422 57
0 0 50.8153 9 Cuts:12 71
0 0 51.5275 9 Cuts:14 84
0+ 0 nan nan 54.5576 51.5275 nan 5.55%
0+ 0 nan nan 54.5576 51.5275 nan 5.55%
0 0 51.5275 9 54.5576 51.5275 143 5.55%
0 0 51.8517 9 54.5576 Cuts:12 155 4.96%
0 0 51.9442 9 54.5576 Cuts:7 164 4.79%
0 0 51.9948 9 54.5576 Cuts:5 173 4.70%
0 0 52.2286 9 54.5576 Cuts:6 186 4.27%
0 0 52.3134 8 54.5576 LiftProj:4 194 4.11%
0 0 52.3244 9 54.5576 Cuts:5 198 4.09%
0 0 52.4569 8 54.5576 Cuts:5 203 3.85%
0 0 52.4916 8 54.5576 LiftProj:4 205 3.79%
0 0 52.5195 9 54.5576 LiftProj:3 208 3.74%
0 0 52.6300 9 54.5576 LiftProj:5 219 3.53%
0 0 52.6903 9 54.5576 LiftProj:2 224 3.42%
0 0 52.7571 9 54.5576 LiftProj:3 229 3.30%
0 0 52.8608 9 54.5576 LiftProj:3 236 3.11%
0 0 53.0495 8 54.5576 LiftProj:3 246 2.76%
0 0 53.1037 8 54.5576 Cuts:6 251 2.66%
0 0 53.2512 8 54.5576 Cuts:4 260 2.39%
0 0 53.2931 8 54.5576 LiftProj:5 264 2.32%
0 0 53.3008 8 54.5576 LiftProj:3 266 2.30%
0 0 53.4002 8 54.5576 LiftProj:3 273 2.12%
0 0 53.4061 8 54.5576 LiftProj:2 278 2.11%
0 0 cutoff 54.5576 53.4061 280 2.11% 0
CPXPARAM_MIP_Cuts_Gomory-Disjunctive-LiftProj-MIRCut:Gomory 1
CPXPARAM_MIP_Cuts_Gomory-Disjunctive-LiftProj-MIRCut:Disjunctive 15
CPXPARAM_MIP_Cuts_Gomory-Disjunctive-LiftProj-MIRCut:LiftProj 0
CPXPARAM_MIP_Cuts_Gomory-Disjunctive-LiftProj-MIRCut:MIRCut 0
5
Node Left Objective IInf Best_Integer Best_Bound ItCnt Gap
0 0 2.3864 6 2.3864 56
0 0 2.6966 8 Cuts:7 69
0 0 3.4209 8 Cuts:13 82
0+ 0 nan nan 13.6225 3.4209 nan 74.89%
0 0 4.9187 8 13.6225 Cuts:14 98 63.89%
0 0 5.3984 8 13.6225 Cuts:11 109 60.37%
0 0 6.0867 8 13.6225 Cuts:13 126 55.32%
0 0 6.0997 8 13.6225 LiftProj:2 130 55.22%
0 0 6.1287 8 13.6225 LiftProj:3 134 55.01%
0 0 6.2265 7 13.6225 LiftProj:2 137 54.29%
0 0 6.5499 7 13.6225 LiftProj:4 144 51.92%
0 0 7.1918 7 13.6225 Cuts:5 156 47.21%
0 0 7.4513 7 13.6225 LiftProj:2 168 45.30%
0 0 7.5120 7 13.6225 LiftProj:4 173 44.86%
0 0 7.5755 7 13.6225 LiftProj:3 179 44.39%
0 0 7.8150 7 13.6225 LiftProj:3 186 42.63%
0 0 8.3851 7 13.6225 LiftProj:3 195 38.45%
0 0 8.4126 7 13.6225 LiftProj:3 198 38.24%
0 0 8.4221 7 13.6225 LiftProj:2 201 38.18%
0 0 8.4592 7 13.6225 LiftProj:2 205 37.90%
0 0 8.5305 7 13.6225 LiftProj:4 213 37.38%
0 0 8.5936 7 13.6225 LiftProj:3 219 36.92%
0 0 8.5967 7 13.6225 LiftProj:3 223 36.89%
0 0 8.6386 7 13.6225 LiftProj:2 230 36.59%
0 0 8.6529 7 13.6225 LiftProj:1 233 36.48%
0 0 8.6570 7 13.6225 LiftProj:2 238 36.45%
0 0 8.6907 7 13.6225 LiftProj:3 241 36.20%
0 0 8.7000 7 13.6225 Cuts:3 245 36.13%
0 0 8.7011 7 13.6225 LiftProj:2 247 36.13%
0 0 8.7141 7 13.6225 LiftProj:1 249 36.03%
0 0 8.7231 7 13.6225 LiftProj:5 252 35.97%
0 0 8.7287 7 13.6225 LiftProj:2 253 35.92%
0 0 8.7532 7 13.6225 LiftProj:4 257 35.74%
0 0 8.7539 7 13.6225 LiftProj:3 258 35.74%
0 2 9.1333 5 13.6225 9.2487 258 32.11%
CPXPARAM_MIP_Cuts_Gomory-Disjunctive-LiftProj-MIRCut:Gomory 0
CPXPARAM_MIP_Cuts_Gomory-Disjunctive-LiftProj-MIRCut:Disjunctive 15
CPXPARAM_MIP_Cuts_Gomory-Disjunctive-LiftProj-MIRCut:LiftProj 0
CPXPARAM_MIP_Cuts_Gomory-Disjunctive-LiftProj-MIRCut:MIRCut 1
6
Node Left Objective IInf Best_Integer Best_Bound ItCnt Gap
0+ 0 nan nan 698.6785 -80.3724 nan 111.50%
0 0 49.1770 2 698.6785 49.1770 57 92.96%
0 0 49.1770 2 698.6785 Disjcuts:1 60 92.96%
0 2 49.1770 2 698.6785 49.1770 62 92.96%
CPXPARAM_MIP_Cuts_Gomory-Disjunctive-LiftProj-MIRCut:Gomory 0
CPXPARAM_MIP_Cuts_Gomory-Disjunctive-LiftProj-MIRCut:Disjunctive 0
CPXPARAM_MIP_Cuts_Gomory-Disjunctive-LiftProj-MIRCut:LiftProj 0
CPXPARAM_MIP_Cuts_Gomory-Disjunctive-LiftProj-MIRCut:MIRCut 1
7
Node Left Objective IInf Best_Integer Best_Bound ItCnt Gap
0 0 7.4387 2 7.4387 48
0+ 0 nan nan 9.7351 7.4387 nan 23.59%
0 0 7.4387 2 9.7351 Cuts:2 52 23.59%
0+ 0 nan nan 9.7351 7.4387 nan 23.59%
0 0 7.4387 2 9.7351 7.4387 103 23.59%
0 0 7.4770 3 9.7351 Fract:2 107 23.19%
0 0 8.0520 4 9.7351 Cuts:5 114 17.29%
0 0 8.5349 3 9.7351 Fract:2 118 12.33%
0 0 8.7748 2 9.7351 Cuts:5 124 9.86%
0 0 9.5872 3 9.7351 Cuts:3 129 1.52%
0 0 cutoff 9.7351 139 0.00% 0 0
CPXPARAM_MIP_Cuts_Gomory-Disjunctive-LiftProj-MIRCut:Gomory 0
CPXPARAM_MIP_Cuts_Gomory-Disjunctive-LiftProj-MIRCut:Disjunctive 2
CPXPARAM_MIP_Cuts_Gomory-Disjunctive-LiftProj-MIRCut:LiftProj 3
CPXPARAM_MIP_Cuts_Gomory-Disjunctive-LiftProj-MIRCut:MIRCut 0
8
Node Left Objective IInf Best_Integer Best_Bound ItCnt Gap
0 0 65.7942 6 65.7942 62
0 0 65.8151 8 Cuts:13 76
0 0 65.8631 7 Cuts:18 88
0 0 65.8739 7 Cuts:9 92
0 0 66.0991 8 Cuts:12 106
0 0 66.4220 8 Cuts:14 119
0+ 0 nan nan 67.9165 66.4220 nan 2.20%
0+ 0 nan nan 67.9165 66.4220 nan 2.20%
0 0 66.4220 8 67.9165 66.4220 204 2.20%
0 0 66.4307 8 67.9165 LiftProj:2 207 2.19%
0 0 66.4530 7 67.9165 Cuts:13 216 2.15%
0 0 66.4658 8 67.9165 LiftProj:2 220 2.14%
0 0 66.4693 8 67.9165 LiftProj:3 223 2.13%
0 0 66.4738 8 67.9165 LiftProj:1 224 2.12%
0 0 66.5008 8 67.9165 LiftProj:2 230 2.08%
0 0 66.5034 8 67.9165 Cuts:8 234 2.08%
0 0 66.5167 8 67.9165 LiftProj:2 238 2.06%
0 0 66.8488 7 67.9165 LiftProj:3 248 1.57%
0 0 67.1021 4 67.9165 Fract:1 258 1.20%
0 0 67.2620 5 67.9165 LiftProj:3 264 0.96%
0 0 67.3626 3 67.9165 LiftProj:1 271 0.82%
0 0 67.8054 2 67.9165 LiftProj:1 277 0.16%
0+ 0 nan nan 67.9165 67.8054 nan 0.16%
0 0 cutoff 67.9165 278 0.00% 0 0
CPXPARAM_MIP_Cuts_Gomory-Disjunctive-LiftProj-MIRCut:Gomory 0
CPXPARAM_MIP_Cuts_Gomory-Disjunctive-LiftProj-MIRCut:Disjunctive 3
CPXPARAM_MIP_Cuts_Gomory-Disjunctive-LiftProj-MIRCut:LiftProj 0
CPXPARAM_MIP_Cuts_Gomory-Disjunctive-LiftProj-MIRCut:MIRCut 0
9
Node Left Objective IInf Best_Integer Best_Bound ItCnt Gap
0 0 11.8594 6 11.8594 54
0 0 13.4298 8 Cuts:19 69
0 0 14.4474 9 Cuts:17 83
0 0 15.0224 9 Cuts:22 96
0 0 15.4069 9 Cuts:16 112
0 0 16.0293 9 Cuts:18 128
0 0 16.1873 9 LiftProj:8 140
0 0 16.3423 9 LiftProj:7 153
0 0 16.3997 9 Cuts:10 158
0 0 16.7679 9 LiftProj:9 181
0 0 16.8149 9 LiftProj:9 188
0 0 16.9460 9 LiftProj:8 195
0 0 16.9785 8 LiftProj:7 204
0 0 17.0749 9 LiftProj:10 209
0 0 17.0838 9 LiftProj:9 213
0 0 17.1369 9 LiftProj:8 223
0 0 17.1855 9 Cuts:13 227
0 0 17.2194 9 Cuts:10 233
0 0 17.2266 9 LiftProj:8 239
0 0 17.2456 9 LiftProj:6 244
0 0 17.2629 9 LiftProj:7 251
0 0 17.2697 9 LiftProj:6 256
0 0 17.2718 9 Cuts:9 258
0 0 17.2767 9 Cuts:7 260
0 0 17.2857 9 Cuts:12 264
0 0 17.2865 9 LiftProj:7 266
0 2 17.2865 9 17.2960 266 0 0
CPXPARAM_MIP_Cuts_Gomory-Disjunctive-LiftProj-MIRCut:Gomory 0
CPXPARAM_MIP_Cuts_Gomory-Disjunctive-LiftProj-MIRCut:Disjunctive 20
CPXPARAM_MIP_Cuts_Gomory-Disjunctive-LiftProj-MIRCut:LiftProj 0
CPXPARAM_MIP_Cuts_Gomory-Disjunctive-LiftProj-MIRCut:MIRCut 0
10
Node Left Objective IInf Best_Integer Best_Bound ItCnt Gap
0 0 60.5073 2 60.5073 52
0+ 0 nan nan 60.5115 60.5073 nan 0.01%
CPXPARAM_MIP_Cuts_Gomory-Disjunctive-LiftProj-MIRCut:Gomory 0
CPXPARAM_MIP_Cuts_Gomory-Disjunctive-LiftProj-MIRCut:Disjunctive 0
CPXPARAM_MIP_Cuts_Gomory-Disjunctive-LiftProj-MIRCut:LiftProj 0
CPXPARAM_MIP_Cuts_Gomory-Disjunctive-LiftProj-MIRCut:MIRCut 0
11
Node Left Objective IInf Best_Integer Best_Bound ItCnt Gap
0 0 16.6537 2 16.6537 50
0+ 0 nan nan 16.6575 16.6537 nan 0.02%
0+ 0 nan nan 16.6575 16.6537 nan 0.02%
0 0 16.6537 1 16.6575 16.6537 109 0.02%
0 0 cutoff 16.6575 113 0.00% 0 0
CPXPARAM_MIP_Cuts_Gomory-Disjunctive-LiftProj-MIRCut:Gomory 0
CPXPARAM_MIP_Cuts_Gomory-Disjunctive-LiftProj-MIRCut:Disjunctive 0
CPXPARAM_MIP_Cuts_Gomory-Disjunctive-LiftProj-MIRCut:LiftProj 0
CPXPARAM_MIP_Cuts_Gomory-Disjunctive-LiftProj-MIRCut:MIRCut 0
12
Node Left Objective IInf Best_Integer Best_Bound ItCnt Gap
0 0 44.2061 6 44.2061 61
0 0 45.3583 9 Cuts:17 78
0 0 46.8925 9 Cuts:21 93
0 0 48.3479 9 Cuts:21 111
0 0 49.0423 9 Cuts:11 128
0 0 49.7474 9 Cuts:14 145
0 0 49.8666 9 Cuts:9 153
0 0 49.8745 9 Cuts:6 157
0 0 49.8930 9 LiftProj:6 167
0 0 49.9067 9 LiftProj:5 170
0 0 49.9801 9 LiftProj:6 182
0 0 50.0192 9 LiftProj:5 188
0 0 50.0282 9 Cuts:9 193
0 0 50.0770 9 Cuts:6 199
0 0 50.0850 9 Cuts:5 202
0 0 50.1015 9 LiftProj:7 211
0 0 50.1082 9 LiftProj:4 216
0 0 50.1330 9 LiftProj:5 220
0 0 50.1465 9 LiftProj:5 223
0 0 50.2008 9 LiftProj:4 230
0 0 50.2223 9 LiftProj:4 233
0 0 50.2731 9 LiftProj:5 242
0 0 50.2858 9 LiftProj:5 249
0 0 50.3331 9 LiftProj:5 257
0 0 50.3521 9 LiftProj:6 265
0 0 50.3591 9 Cuts:5 269
0+ 0 nan nan 68.2805 50.3591 nan 26.25%
0 2 50.4296 8 68.2805 50.9834 269 25.33%
CPXPARAM_MIP_Cuts_Gomory-Disjunctive-LiftProj-MIRCut:Gomory 0
CPXPARAM_MIP_Cuts_Gomory-Disjunctive-LiftProj-MIRCut:Disjunctive 13
CPXPARAM_MIP_Cuts_Gomory-Disjunctive-LiftProj-MIRCut:LiftProj 0
CPXPARAM_MIP_Cuts_Gomory-Disjunctive-LiftProj-MIRCut:MIRCut 4
13
Node Left Objective IInf Best_Integer Best_Bound ItCnt Gap
0 0 10.2945 6 10.2945 57
0+ 0 nan nan 16.4316 10.2945 nan 37.35%
0 0 10.3786 7 16.4316 Cuts:6 70 36.84%
0 0 10.7261 8 16.4316 Cuts:12 77 34.72%
0 0 11.3699 8 16.4316 Cuts:14 90 30.80%
0 0 11.9001 8 16.4316 Cuts:14 107 27.58%
0 0 12.0893 7 16.4316 Cuts:12 120 26.43%
0 0 12.1009 8 16.4316 LiftProj:4 122 26.36%
0 0 12.1949 8 16.4316 LiftProj:3 131 25.78%
0 0 12.2846 7 16.4316 LiftProj:4 143 25.24%
0 0 12.2949 8 16.4316 LiftProj:3 144 25.18%
0 0 12.3689 7 16.4316 LiftProj:4 151 24.72%
0 0 12.4434 8 16.4316 LiftProj:5 155 24.27%
0 0 12.4657 8 16.4316 LiftProj:5 156 24.14%
0 0 12.5140 8 16.4316 LiftProj:4 161 23.84%
0 0 12.5612 8 16.4316 LiftProj:4 169 23.55%
0 0 12.6434 8 16.4316 LiftProj:4 178 23.05%
0 0 12.6623 8 16.4316 LiftProj:5 180 22.94%
0 0 12.8429 8 16.4316 LiftProj:5 187 21.84%
0 0 12.8471 8 16.4316 LiftProj:3 189 21.81%
0 0 12.8828 8 16.4316 LiftProj:4 194 21.60%
0 0 12.9227 8 16.4316 LiftProj:1 199 21.35%
0 0 12.9259 8 16.4316 LiftProj:1 200 21.33%
0 0 12.9427 8 16.4316 LiftProj:1 204 21.23%
0 2 12.9567 7 16.4316 12.9737 204 21.04%
CPXPARAM_MIP_Cuts_Gomory-Disjunctive-LiftProj-MIRCut:Gomory 0
CPXPARAM_MIP_Cuts_Gomory-Disjunctive-LiftProj-MIRCut:Disjunctive 13
CPXPARAM_MIP_Cuts_Gomory-Disjunctive-LiftProj-MIRCut:LiftProj 0
CPXPARAM_MIP_Cuts_Gomory-Disjunctive-LiftProj-MIRCut:MIRCut 1
14
Node Left Objective IInf Best_Integer Best_Bound ItCnt Gap
0 0 46.5469 2 46.5469 53
0+ 0 nan nan 47.4290 46.5469 nan 1.86%
0 0 46.5469 2 47.4290 Disjcuts:1 57 1.86%
0+ 0 nan nan 47.4290 46.5469 nan 1.86%
0 0 46.5469 2 47.4290 46.5469 111 1.86%
0 0 cutoff 47.4290 119 0.00% 0 0
CPXPARAM_MIP_Cuts_Gomory-Disjunctive-LiftProj-MIRCut:Gomory 0
CPXPARAM_MIP_Cuts_Gomory-Disjunctive-LiftProj-MIRCut:Disjunctive 0
CPXPARAM_MIP_Cuts_Gomory-Disjunctive-LiftProj-MIRCut:LiftProj 0
CPXPARAM_MIP_Cuts_Gomory-Disjunctive-LiftProj-MIRCut:MIRCut 1
15
Node Left Objective IInf Best_Integer Best_Bound ItCnt Gap
0+ 0 nan nan 754.6210 -94.3684 nan 112.51%
0 0 10.7585 2 754.6210 10.7585 50 98.57%
0 0 10.7585 2 754.6210 Cuts:2 53 98.57%
0+ 0 nan nan 15.2716 10.7585 nan 29.55%
0 0 10.7585 2 15.2716 Cuts:2 56 29.55%
0 2 10.7585 2 15.2716 10.7585 56 29.55%
CPXPARAM_MIP_Cuts_Gomory-Disjunctive-LiftProj-MIRCut:Gomory 0
CPXPARAM_MIP_Cuts_Gomory-Disjunctive-LiftProj-MIRCut:Disjunctive 0
CPXPARAM_MIP_Cuts_Gomory-Disjunctive-LiftProj-MIRCut:LiftProj 2
CPXPARAM_MIP_Cuts_Gomory-Disjunctive-LiftProj-MIRCut:MIRCut 2
16
Node Left Objective IInf Best_Integer Best_Bound ItCnt Gap
0 0 58.8715 6 58.8715 57
0 0 59.6641 7 Cuts:6 72
0 0 60.7947 6 Cuts:8 83
0+ 0 nan nan 61.8856 60.7947 nan 1.76%
0+ 0 nan nan 61.8856 60.7947 nan 1.76%
0 0 60.7952 4 61.8856 60.7952 147 1.76%
0 0 60.9634 4 61.8856 Cuts:4 151 1.49%
0 0 61.0198 5 61.8856 Cuts:4 158 1.40%
0 0 61.0769 5 61.8856 Cuts:7 167 1.31%
0 0 61.0968 5 61.8856 LiftProj:2 171 1.27%
0 0 61.1318 5 61.8856 LiftProj:2 172 1.22%
0 0 61.1330 5 61.8856 Cuts:3 174 1.22%
0 0 0 61.8856 61.1330 187 1.22%
0 0 61.8856 0 61.8856 61.8856 187 0.00%
CPXPARAM_MIP_Cuts_Gomory-Disjunctive-LiftProj-MIRCut:Gomory 0
CPXPARAM_MIP_Cuts_Gomory-Disjunctive-LiftProj-MIRCut:Disjunctive 4
CPXPARAM_MIP_Cuts_Gomory-Disjunctive-LiftProj-MIRCut:LiftProj 1
CPXPARAM_MIP_Cuts_Gomory-Disjunctive-LiftProj-MIRCut:MIRCut 2
17
Node Left Objective IInf Best_Integer Best_Bound ItCnt Gap
0 0 10.2675 6 10.2675 65
0 0 10.4496 8 Cuts:12 78
0 0 11.6677 8 Cuts:15 97
0+ 0 nan nan 21.7788 11.6677 nan 46.43%
0 0 12.4281 9 21.7788 Cuts:17 107 42.93%
0 0 12.6765 9 21.7788 Cuts:10 120 41.79%
0 0 12.8329 9 21.7788 Cuts:15 130 41.08%
0 0 12.9394 9 21.7788 Cuts:8 137 40.59%
0 0 12.9627 9 21.7788 LiftProj:1 140 40.48%
0 0 13.0288 8 21.7788 LiftProj:3 144 40.18%
0 0 13.0399 8 21.7788 LiftProj:3 146 40.13%
0 0 13.0402 8 21.7788 LiftProj:2 147 40.12%
0 0 13.1067 8 21.7788 LiftProj:3 152 39.82%
0 0 13.1078 8 21.7788 LiftProj:1 153 39.81%
0 2 13.1437 7 21.7788 13.1565 153 39.59%
CPXPARAM_MIP_Cuts_Gomory-Disjunctive-LiftProj-MIRCut:Gomory 0
CPXPARAM_MIP_Cuts_Gomory-Disjunctive-LiftProj-MIRCut:Disjunctive 7
CPXPARAM_MIP_Cuts_Gomory-Disjunctive-LiftProj-MIRCut:LiftProj 1
CPXPARAM_MIP_Cuts_Gomory-Disjunctive-LiftProj-MIRCut:MIRCut 2
18
Node Left Objective IInf Best_Integer Best_Bound ItCnt Gap
0+ 0 nan nan 850.5680 -92.8051 nan 110.91%
0 0 58.3813 2 850.5680 58.3813 51 93.14%
0 0 58.3813 2 850.5680 Cuts:6 55 93.14%
0+ 0 nan nan 58.4112 58.3813 nan 0.05%
0+ 0 nan nan 58.4112 58.3813 nan 0.05%
0 0 58.3813 2 58.4112 58.3813 111 0.05%
0 0 cutoff 58.4112 58.3813 118 0.05% 0
CPXPARAM_MIP_Cuts_Gomory-Disjunctive-LiftProj-MIRCut:Gomory 0
CPXPARAM_MIP_Cuts_Gomory-Disjunctive-LiftProj-MIRCut:Disjunctive 1
CPXPARAM_MIP_Cuts_Gomory-Disjunctive-LiftProj-MIRCut:LiftProj 2
CPXPARAM_MIP_Cuts_Gomory-Disjunctive-LiftProj-MIRCut:MIRCut 2
19
Node Left Objective IInf Best_Integer Best_Bound ItCnt Gap
0+ 0 nan nan 682.2187 -97.6235 nan 114.31%
0 0 15.5882 2 682.2187 15.5882 47 97.72%
0 0 15.5882 2 682.2187 Disjcuts:1 49 97.72%
0+ 0 nan nan 15.7874 15.5882 nan 1.26%
0 0 15.5882 2 15.7874 Cuts:2 52 1.26%
0+ 0 nan nan 15.7874 15.5882 nan 1.26%
0 0 15.5882 2 15.7874 15.5882 98 1.26%
0 0 15.5882 2 15.7874 Cuts:3 104 1.26%
0 2 15.6366 3 15.7874 15.6410 104 0.93%
CPXPARAM_MIP_Cuts_Gomory-Disjunctive-LiftProj-MIRCut:Gomory 0
CPXPARAM_MIP_Cuts_Gomory-Disjunctive-LiftProj-MIRCut:Disjunctive 0
CPXPARAM_MIP_Cuts_Gomory-Disjunctive-LiftProj-MIRCut:LiftProj 2
CPXPARAM_MIP_Cuts_Gomory-Disjunctive-LiftProj-MIRCut:MIRCut 2
20
Node Left Objective IInf Best_Integer Best_Bound ItCnt Gap
0 0 31.6179 6 31.6179 61
0 0 31.6334 7 Cuts:6 71
0 0 0 34.4860 34.4860 92 0.00% 0
CPXPARAM_MIP_Cuts_Gomory-Disjunctive-LiftProj-MIRCut:Gomory 0
CPXPARAM_MIP_Cuts_Gomory-Disjunctive-LiftProj-MIRCut:Disjunctive 0
CPXPARAM_MIP_Cuts_Gomory-Disjunctive-LiftProj-MIRCut:LiftProj 0
CPXPARAM_MIP_Cuts_Gomory-Disjunctive-LiftProj-MIRCut:MIRCut 0
21
Node Left Objective IInf Best_Integer Best_Bound ItCnt Gap
0 0 5.4416 6 5.4416 61
0 0 5.6164 8 Cuts:10 81
0 0 7.0166 7 Cuts:7 100
0+ 0 nan nan 9.1778 7.0166 nan 23.55%
0 0 7.1688 7 9.1778 Cuts:14 111 21.89%
0 0 8.0263 6 9.1778 Cuts:10 132 12.55%
0+ 0 nan nan 9.1778 8.0263 nan 12.55%
0 0 8.5799 3 9.1778 8.5799 186 6.52%
0 0 8.7113 2 9.1778 Cuts:3 191 5.08%
0 0 cutoff 9.1778 198 0.00% 0 0
CPXPARAM_MIP_Cuts_Gomory-Disjunctive-LiftProj-MIRCut:Gomory 0
CPXPARAM_MIP_Cuts_Gomory-Disjunctive-LiftProj-MIRCut:Disjunctive 0
CPXPARAM_MIP_Cuts_Gomory-Disjunctive-LiftProj-MIRCut:LiftProj 0
CPXPARAM_MIP_Cuts_Gomory-Disjunctive-LiftProj-MIRCut:MIRCut 1
22
Node Left Objective IInf Best_Integer Best_Bound ItCnt Gap
0 0 28.4414 2 28.4414 42
0+ 0 nan nan 28.5540 28.4414 nan 0.39%
0 0 28.4414 2 28.5540 Cuts:2 46 0.39%
0+ 0 nan nan 28.5540 28.4414 nan 0.39%
0 0 28.4414 2 28.5540 28.4414 91 0.39%
0 0 28.4414 2 28.5540 Cuts:3 95 0.39%
0 0 28.5271 2 28.5540 Fract:1 111 0.09%
0 0 28.5433 2 28.5540 Cuts:2 117 0.04%
0+ 0 nan nan 28.5434 28.5433 nan 0.00%
CPXPARAM_MIP_Cuts_Gomory-Disjunctive-LiftProj-MIRCut:Gomory 0
CPXPARAM_MIP_Cuts_Gomory-Disjunctive-LiftProj-MIRCut:Disjunctive 1
CPXPARAM_MIP_Cuts_Gomory-Disjunctive-LiftProj-MIRCut:LiftProj 0
CPXPARAM_MIP_Cuts_Gomory-Disjunctive-LiftProj-MIRCut:MIRCut 1
23
Node Left Objective IInf Best_Integer Best_Bound ItCnt Gap
0 0 3.9556 2 3.9556 52
0+ 0 nan nan 4.0841 3.9556 nan 3.15%
0+ 0 nan nan 4.0841 3.9556 nan 3.15%
0 0 3.9556 1 4.0841 3.9556 109 3.15%
0 0 3.9573 1 4.0841 Cuts:2 111 3.10%
0 0 cutoff 4.0841 117 0.00% 0 0
CPXPARAM_MIP_Cuts_Gomory-Disjunctive-LiftProj-MIRCut:Gomory 0
CPXPARAM_MIP_Cuts_Gomory-Disjunctive-LiftProj-MIRCut:Disjunctive 0
CPXPARAM_MIP_Cuts_Gomory-Disjunctive-LiftProj-MIRCut:LiftProj 1
CPXPARAM_MIP_Cuts_Gomory-Disjunctive-LiftProj-MIRCut:MIRCut 0
24
Node Left Objective IInf Best_Integer Best_Bound ItCnt Gap
0 0 34.8025 6 34.8025 60
0+ 0 nan nan 38.6713 34.8025 nan 10.00%
0 0 34.9677 9 38.6713 Cuts:13 76 9.58%
0 0 35.8238 8 38.6713 Cuts:9 89 7.36%
0+ 0 nan nan 38.6713 35.8238 nan 7.36%
0 0 35.8238 8 38.6713 35.8238 158 7.36%
0 0 36.0991 8 38.6713 Fract:7 171 6.65%
0 0 36.2868 8 38.6713 Cuts:7 186 6.17%
0 0 36.5773 7 38.6713 Cuts:10 200 5.41%
0 0 36.6706 8 38.6713 LiftProj:5 208 5.17%
0 0 36.7137 8 38.6713 LiftProj:6 217 5.06%
0 0 36.7197 8 38.6713 LiftProj:2 221 5.05%
0 0 36.7335 8 38.6713 Cuts:6 225 5.01%
0 0 36.7501 8 38.6713 LiftProj:2 231 4.97%
0 0 36.8389 8 38.6713 LiftProj:7 239 4.74%
0 0 36.9031 8 38.6713 LiftProj:5 247 4.57%
0 0 37.2679 8 38.6713 LiftProj:3 257 3.63%
0 0 37.3490 8 38.6713 Cuts:10 261 3.42%
0 0 37.4855 8 38.6713 LiftProj:6 267 3.07%
0 0 37.8025 8 38.6713 LiftProj:6 275 2.25%
0 0 37.9136 7 38.6713 LiftProj:4 284 1.96%
0+ 0 nan nan 38.6713 37.9136 nan 1.96%
0 0 cutoff 38.6713 38.4358 305 0.61% 0
CPXPARAM_MIP_Cuts_Gomory-Disjunctive-LiftProj-MIRCut:Gomory 0
CPXPARAM_MIP_Cuts_Gomory-Disjunctive-LiftProj-MIRCut:Disjunctive 8
CPXPARAM_MIP_Cuts_Gomory-Disjunctive-LiftProj-MIRCut:LiftProj 0
CPXPARAM_MIP_Cuts_Gomory-Disjunctive-LiftProj-MIRCut:MIRCut 0
25
Node Left Objective IInf Best_Integer Best_Bound ItCnt Gap
0 0 0.4196 6 0.4196 63
0 0 0.6887 7 Cuts:7 81
0 0 1.7246 6 Cuts:8 106
0 0 0 7.4242 7.4242 138 0.00% 0
CPXPARAM_MIP_Cuts_Gomory-Disjunctive-LiftProj-MIRCut:Gomory 0
CPXPARAM_MIP_Cuts_Gomory-Disjunctive-LiftProj-MIRCut:Disjunctive 0
CPXPARAM_MIP_Cuts_Gomory-Disjunctive-LiftProj-MIRCut:LiftProj 0
CPXPARAM_MIP_Cuts_Gomory-Disjunctive-LiftProj-MIRCut:MIRCut 0
26
Node Left Objective IInf Best_Integer Best_Bound ItCnt Gap
0 0 0 36.9182 36.9182 54 0.00% 0
CPXPARAM_MIP_Cuts_Gomory-Disjunctive-LiftProj-MIRCut:Gomory 0
CPXPARAM_MIP_Cuts_Gomory-Disjunctive-LiftProj-MIRCut:Disjunctive 0
CPXPARAM_MIP_Cuts_Gomory-Disjunctive-LiftProj-MIRCut:LiftProj 0
CPXPARAM_MIP_Cuts_Gomory-Disjunctive-LiftProj-MIRCut:MIRCut 0
27
Node Left Objective IInf Best_Integer Best_Bound ItCnt Gap
0 0 4.5323 2 4.5323 44
0+ 0 nan nan 4.5514 4.5323 nan 0.42%
0 0 4.5323 2 4.5514 Disjcuts:1 48 0.42%
0+ 0 nan nan 4.5514 4.5323 nan 0.42%
0 0 4.5323 2 4.5514 4.5323 101 0.42%
0 0 4.5323 2 4.5514 Fract:1 105 0.42%
0 1 4.5505 2 4.5514 4.5506 107 0.02%
CPXPARAM_MIP_Cuts_Gomory-Disjunctive-LiftProj-MIRCut:Gomory 0
CPXPARAM_MIP_Cuts_Gomory-Disjunctive-LiftProj-MIRCut:Disjunctive 0
CPXPARAM_MIP_Cuts_Gomory-Disjunctive-LiftProj-MIRCut:LiftProj 1
CPXPARAM_MIP_Cuts_Gomory-Disjunctive-LiftProj-MIRCut:MIRCut 1
28
Node Left Objective IInf Best_Integer Best_Bound ItCnt Gap
0 0 63.6500 6 63.6500 54
0 0 64.7973 8 Cuts:9 71
0 0 68.1201 7 Cuts:10 83
0 0 70.8028 7 Cuts:14 99
0 0 71.6753 7 Cuts:13 129
0+ 0 nan nan 74.1734 71.6753 nan 3.37%
0+ 0 nan nan 74.1734 71.6753 nan 3.37%
0 0 71.6753 7 74.1734 71.6753 201 3.37%
0 0 71.7942 7 74.1734 Cuts:7 212 3.21%
0 0 71.8839 7 74.1734 Cuts:3 216 3.09%
0 0 72.1426 6 74.1734 Cuts:4 237 2.74%
0 0 cutoff 74.1734 260 0.00% 0 0
CPXPARAM_MIP_Cuts_Gomory-Disjunctive-LiftProj-MIRCut:Gomory 0
CPXPARAM_MIP_Cuts_Gomory-Disjunctive-LiftProj-MIRCut:Disjunctive 2
CPXPARAM_MIP_Cuts_Gomory-Disjunctive-LiftProj-MIRCut:LiftProj 2
CPXPARAM_MIP_Cuts_Gomory-Disjunctive-LiftProj-MIRCut:MIRCut 3
29
Node Left Objective IInf Best_Integer Best_Bound ItCnt Gap
0+ 0 nan nan 994.8986 -114.3356 nan 111.49%
0+ 0 nan nan 37.2949 -114.3356 nan 406.57%
0 0 6.3884 6 37.2949 6.3884 54 82.87%
0 0 6.8409 9 37.2949 Cuts:9 69 81.66%
0 0 7.6708 9 37.2949 Cuts:11 80 79.43%
0 0 7.9782 9 37.2949 Cuts:12 93 78.61%
0 0 8.2293 8 37.2949 Cuts:6 107 77.93%
0 0 8.3074 9 37.2949 Cuts:7 115 77.73%
0 0 8.3221 9 37.2949 LiftProj:6 121 77.69%
0 0 8.5311 9 37.2949 LiftProj:8 137 77.13%
0 0 9.1645 9 37.2949 Cuts:11 149 75.43%
0 0 9.1958 9 37.2949 LiftProj:3 151 75.34%
0 0 9.2287 9 37.2949 Cuts:3 154 75.25%
0 0 9.3806 8 37.2949 Cuts:3 165 74.85%
0 0 9.4109 9 37.2949 Cuts:6 173 74.77%
0 0 9.4178 9 37.2949 LiftProj:4 178 74.75%
0 0 9.4478 9 37.2949 LiftProj:4 181 74.67%
0 0 9.5382 8 37.2949 LiftProj:5 186 74.42%
0 0 9.6013 9 37.2949 LiftProj:4 195 74.26%
0 0 9.9929 8 37.2949 LiftProj:3 203 73.21%
0 0 10.2481 8 37.2949 LiftProj:8 209 72.52%
0 0 10.3553 9 37.2949 LiftProj:6 212 72.23%
0 0 10.5409 9 37.2949 LiftProj:4 219 71.74%
0 0 11.0002 9 37.2949 LiftProj:5 232 70.50%
0 0 11.5730 9 37.2949 LiftProj:4 241 68.97%
0+ 0 nan nan 16.1240 11.5730 nan 28.22%
0+ 0 nan nan 16.1240 11.5730 nan 28.22%
0 0 11.5730 9 16.1240 11.5730 315 28.22%
0 0 12.1611 9 16.1240 Cuts:14 333 24.58%
0 0 12.4452 8 16.1240 Cuts:12 342 22.82%
0 0 12.5932 9 16.1240 Cuts:13 351 21.90%
0 0 12.7431 8 16.1240 Cuts:9 361 20.97%
0 0 12.7887 9 16.1240 LiftProj:8 367 20.69%
0 0 12.9114 9 16.1240 LiftProj:5 376 19.92%
0 0 12.9761 9 16.1240 Cuts:12 383 19.52%
0 0 13.1307 9 16.1240 Cuts:11 397 18.56%
0 0 13.2112 9 16.1240 Cuts:8 405 18.06%
0 0 13.2283 9 16.1240 Cuts:5 411 17.96%
0 0 13.2307 9 16.1240 Cuts:8 413 17.94%
0 0 13.2400 9 16.1240 LiftProj:2 416 17.89%
0 0 13.2427 9 16.1240 LiftProj:5 418 17.87%
0 0 13.2586 9 16.1240 LiftProj:4 422 17.77%
0 0 13.2648 9 16.1240 LiftProj:4 425 17.73%
0 0 13.2857 9 16.1240 LiftProj:3 433 17.60%
0 0 13.2957 9 16.1240 LiftProj:3 441 17.54%
0 0 13.2988 9 16.1240 LiftProj:4 443 17.52%
0 0 13.3186 9 16.1240 LiftProj:2 451 17.40%
0 0 13.3315 9 16.1240 LiftProj:4 455 17.32%
0 0 13.3355 9 16.1240 LiftProj:2 458 17.29%
0 0 13.3476 9 16.1240 LiftProj:3 462 17.22%
0 0 13.3538 9 16.1240 LiftProj:1 465 17.18%
0 0 13.3555 9 16.1240 LiftProj:2 467 17.17%
0 0 13.3626 9 16.1240 LiftProj:2 471 17.13%
0 0 13.3641 9 16.1240 LiftProj:1 475 17.12%
0 2 14.2324 6 16.1240 14.3605 475 10.94%
CPXPARAM_MIP_Cuts_Gomory-Disjunctive-LiftProj-MIRCut:Gomory 0
CPXPARAM_MIP_Cuts_Gomory-Disjunctive-LiftProj-MIRCut:Disjunctive 16
CPXPARAM_MIP_Cuts_Gomory-Disjunctive-LiftProj-MIRCut:LiftProj 3
CPXPARAM_MIP_Cuts_Gomory-Disjunctive-LiftProj-MIRCut:MIRCut 0
30
Node Left Objective IInf Best_Integer Best_Bound ItCnt Gap
0+ 0 nan nan 514.4143 -106.7235 nan 120.75%
0+ 0 nan nan 83.5731 -106.7235 nan 227.70%
0 0 69.0899 2 83.5731 69.0899 47 17.33%
0 0 69.0899 2 83.5731 Cuts:3 51 17.33%
0 0 69.0899 2 83.5731 Cuts:4 53 17.33%
0 2 69.0899 2 83.5731 69.0899 53 17.33%
CPXPARAM_MIP_Cuts_Gomory-Disjunctive-LiftProj-MIRCut:Gomory 0
CPXPARAM_MIP_Cuts_Gomory-Disjunctive-LiftProj-MIRCut:Disjunctive 2
CPXPARAM_MIP_Cuts_Gomory-Disjunctive-LiftProj-MIRCut:LiftProj 3
CPXPARAM_MIP_Cuts_Gomory-Disjunctive-LiftProj-MIRCut:MIRCut 0
31
Node Left Objective IInf Best_Integer Best_Bound ItCnt Gap
0 0 7.6579 2 7.6579 41
0+ 0 nan nan 8.0780 7.6579 nan 5.20%
0 0 7.6579 2 8.0780 Cuts:2 44 5.20%
0+ 0 nan nan 8.0780 7.6579 nan 5.20%
0 0 7.6579 2 8.0780 7.6579 89 5.20%
0 0 7.6579 2 8.0780 Fract:1 93 5.20%
0 0 8.0777 2 8.0780 Cuts:4 103 0.00%
CPXPARAM_MIP_Cuts_Gomory-Disjunctive-LiftProj-MIRCut:Gomory 0
CPXPARAM_MIP_Cuts_Gomory-Disjunctive-LiftProj-MIRCut:Disjunctive 0
CPXPARAM_MIP_Cuts_Gomory-Disjunctive-LiftProj-MIRCut:LiftProj 2
CPXPARAM_MIP_Cuts_Gomory-Disjunctive-LiftProj-MIRCut:MIRCut 0
32
Node Left Objective IInf Best_Integer Best_Bound ItCnt Gap
0 0 46.2013 6 46.2013 60
0 0 46.2394 7 Cuts:6 71
0 0 46.4378 7 Cuts:6 83
0 0 47.0252 7 Cuts:12 91
0 0 47.2399 7 Cuts:12 106
0+ 0 nan nan 49.3481 47.2399 nan 4.27%
0+ 0 nan nan 49.3481 47.2399 nan 4.27%
0 0 47.2399 7 49.3481 47.2399 175 4.27%
0 0 47.4143 5 49.3481 Cuts:6 185 3.92%
0 0 47.6524 6 49.3481 Cuts:4 194 3.44%
0 0 47.7205 5 49.3481 LiftProj:2 199 3.30%
0+ 0 nan nan 49.3481 47.7205 nan 3.30%
0 0 47.7348 5 49.3481 LiftProj:2 201 3.27%
0 0 47.9234 6 49.3481 LiftProj:2 208 2.89%
0 0 48.0349 6 49.3481 Cuts:5 212 2.66%
0 0 48.0635 6 49.3481 Cuts:4 216 2.60%
0 0 48.0868 6 49.3481 LiftProj:3 219 2.56%
0 0 48.1675 6 49.3481 LiftProj:3 232 2.39%
0 0 48.2449 5 49.3481 LiftProj:1 238 2.24%
0 0 48.3002 5 49.3481 Cuts:4 240 2.12%
0+ 0 nan nan 49.3481 48.3002 nan 2.12%
0 0 48.5240 5 49.3481 LiftProj:4 249 1.67%
0 0 48.5651 5 49.3481 LiftProj:3 253 1.59%
0 0 48.6000 5 49.3481 LiftProj:4 257 1.52%
0 0 48.6109 5 49.3481 LiftProj:4 261 1.49%
0 0 48.6596 5 49.3481 LiftProj:4 272 1.40%
0 0 48.9229 5 49.3481 LiftProj:2 284 0.86%
0 0 49.1641 3 49.3481 LiftProj:1 298 0.37%
0 0 cutoff 49.3481 306 0.00% 0 0
CPXPARAM_MIP_Cuts_Gomory-Disjunctive-LiftProj-MIRCut:Gomory 0
CPXPARAM_MIP_Cuts_Gomory-Disjunctive-LiftProj-MIRCut:Disjunctive 2
CPXPARAM_MIP_Cuts_Gomory-Disjunctive-LiftProj-MIRCut:LiftProj 0
CPXPARAM_MIP_Cuts_Gomory-Disjunctive-LiftProj-MIRCut:MIRCut 0
33
Node Left Objective IInf Best_Integer Best_Bound ItCnt Gap
0 0 0.8948 6 0.8948 57
0 0 1.6642 8 Cuts:9 70
0 0 7.3876 6 Cuts:5 89
0+ 0 nan nan 11.6907 7.3876 nan 36.81%
0 0 cutoff 11.6907 108 0.00% 0 0
CPXPARAM_MIP_Cuts_Gomory-Disjunctive-LiftProj-MIRCut:Gomory 0
CPXPARAM_MIP_Cuts_Gomory-Disjunctive-LiftProj-MIRCut:Disjunctive 0
CPXPARAM_MIP_Cuts_Gomory-Disjunctive-LiftProj-MIRCut:LiftProj 1
CPXPARAM_MIP_Cuts_Gomory-Disjunctive-LiftProj-MIRCut:MIRCut 3
34
Node Left Objective IInf Best_Integer Best_Bound ItCnt Gap
0 0 41.8656 2 41.8656 44
0+ 0 nan nan 41.9255 41.8656 nan 0.14%
0 0 cutoff 41.9255 41.8656 51 0.14% 0
CPXPARAM_MIP_Cuts_Gomory-Disjunctive-LiftProj-MIRCut:Gomory 0
CPXPARAM_MIP_Cuts_Gomory-Disjunctive-LiftProj-MIRCut:Disjunctive 0
CPXPARAM_MIP_Cuts_Gomory-Disjunctive-LiftProj-MIRCut:LiftProj 0
CPXPARAM_MIP_Cuts_Gomory-Disjunctive-LiftProj-MIRCut:MIRCut 0
35
Node Left Objective IInf Best_Integer Best_Bound ItCnt Gap
0 0 10.6421 2 10.6421 45
0+ 0 nan nan 10.9052 10.6421 nan 2.41%
0+ 0 nan nan 10.9052 10.6421 nan 2.41%
0 0 10.6421 1 10.9052 10.6421 99 2.41%
0 0 10.6487 1 10.9052 Cuts:2 101 2.35%
0 0 cutoff 10.9052 101 0.00% 0 0
CPXPARAM_MIP_Cuts_Gomory-Disjunctive-LiftProj-MIRCut:Gomory 0
CPXPARAM_MIP_Cuts_Gomory-Disjunctive-LiftProj-MIRCut:Disjunctive 0
CPXPARAM_MIP_Cuts_Gomory-Disjunctive-LiftProj-MIRCut:LiftProj 1
CPXPARAM_MIP_Cuts_Gomory-Disjunctive-LiftProj-MIRCut:MIRCut 0
36
Node Left Objective IInf Best_Integer Best_Bound ItCnt Gap
0 0 48.4886 6 48.4886 59
0 0 48.5199 7 Cuts:3 68
0 0 49.2284 5 Cuts:7 76
0+ 0 nan nan 52.9256 49.2284 nan 6.99%
0+ 0 nan nan 52.9256 49.2284 nan 6.99%
0 0 49.2284 5 52.9256 49.2284 144 6.99%
0 0 49.5273 7 52.9256 Cuts:5 152 6.42%
0 0 49.6748 7 52.9256 Cuts:6 161 6.14%
0 0 49.8871 7 52.9256 Fract:5 165 5.74%
0 0 50.2885 7 52.9256 LiftProj:2 168 4.98%
0 0 50.3413 7 52.9256 LiftProj:2 173 4.88%
0 0 50.8896 7 52.9256 LiftProj:2 181 3.85%
0 0 51.1123 7 52.9256 LiftProj:2 189 3.43%
0 0 52.0280 5 52.9256 LiftProj:1 207 1.70%
0+ 0 nan nan 52.9256 52.0280 nan 1.70%
0 0 52.6146 4 52.9256 Cuts:3 225 0.59%
0+ 0 nan nan 52.9256 52.6146 nan 0.59%
0 0 cutoff 52.9256 238 0.00% 0 0
CPXPARAM_MIP_Cuts_Gomory-Disjunctive-LiftProj-MIRCut:Gomory 0
CPXPARAM_MIP_Cuts_Gomory-Disjunctive-LiftProj-MIRCut:Disjunctive 2
CPXPARAM_MIP_Cuts_Gomory-Disjunctive-LiftProj-MIRCut:LiftProj 2
CPXPARAM_MIP_Cuts_Gomory-Disjunctive-LiftProj-MIRCut:MIRCut 0
37
Node Left Objective IInf Best_Integer Best_Bound ItCnt Gap
0 0 -6.1266 6 -6.1266 62
0 0 -5.2987 9 Cuts:16 76
0 0 -3.7377 8 Cuts:12 91
0 0 -2.1337 8 Cuts:16 109
0 0 -1.1212 8 Cuts:19 120
0 0 -0.0075 8 Cuts:16 146
0 0 0.2018 8 LiftProj:5 154
0 0 0.6244 8 Cuts:9 165
0 0 1.0504 8 LiftProj:5 174
0 0 1.4015 8 Cuts:12 186
0 0 1.6294 8 LiftProj:6 194
0 0 2.0111 8 LiftProj:5 203
0 0 2.0814 8 LiftProj:7 207
0 0 2.3032 8 LiftProj:7 217
0 0 2.5140 8 Cuts:7 227
0 0 3.1270 8 LiftProj:7 243
0 0 3.4880 8 Cuts:9 260
0 0 3.8043 8 LiftProj:5 269
0 0 4.1388 8 LiftProj:7 276
0 0 4.9219 8 LiftProj:5 286
0 0 5.1182 8 Cuts:10 293
0 0 5.2609 8 Cuts:11 303
0 0 5.3529 8 Cuts:5 310
0 0 5.4648 8 LiftProj:8 317
0 0 5.8796 8 Cuts:16 329
0 0 6.2158 8 LiftProj:6 339
0 0 6.2180 8 LiftProj:9 342
0 0 6.2816 8 LiftProj:5 344
0 0 6.3233 8 LiftProj:7 357
0 0 6.4717 8 LiftProj:5 370
0 0 6.5100 8 LiftProj:5 376
0 0 6.5276 8 LiftProj:6 381
0 0 6.5804 8 LiftProj:5 390
0 0 6.5862 8 LiftProj:6 393
0 0 6.6344 8 LiftProj:5 399
0 0 6.6500 8 LiftProj:3 404
0 0 6.6585 8 LiftProj:2 408
0 0 6.6644 8 LiftProj:1 409
0 0 6.6650 8 LiftProj:2 410
0 0 6.6697 8 LiftProj:1 412
0 0 6.6867 8 LiftProj:4 416
0 0 6.6876 8 LiftProj:1 417
0+ 0 nan nan 10.0443 6.6876 nan 33.42%
0 2 6.9939 5 10.0443 7.0397 417 29.91%
CPXPARAM_MIP_Cuts_Gomory-Disjunctive-LiftProj-MIRCut:Gomory 1
CPXPARAM_MIP_Cuts_Gomory-Disjunctive-LiftProj-MIRCut:Disjunctive 24
CPXPARAM_MIP_Cuts_Gomory-Disjunctive-LiftProj-MIRCut:LiftProj 0
CPXPARAM_MIP_Cuts_Gomory-Disjunctive-LiftProj-MIRCut:MIRCut 0
38
Node Left Objective IInf Best_Integer Best_Bound ItCnt Gap
0 0 47.4773 2 47.4773 45
0+ 0 nan nan 47.5785 47.4773 nan 0.21%
0+ 0 nan nan 47.5785 47.4773 nan 0.21%
0 0 47.4773 2 47.5785 47.4773 93 0.21%
0 0 47.4773 2 47.5785 Cuts:2 97 0.21%
0 0 cutoff 47.5785 101 0.00% 0 0
CPXPARAM_MIP_Cuts_Gomory-Disjunctive-LiftProj-MIRCut:Gomory 0
CPXPARAM_MIP_Cuts_Gomory-Disjunctive-LiftProj-MIRCut:Disjunctive 0
CPXPARAM_MIP_Cuts_Gomory-Disjunctive-LiftProj-MIRCut:LiftProj 1
CPXPARAM_MIP_Cuts_Gomory-Disjunctive-LiftProj-MIRCut:MIRCut 1
39
Node Left Objective IInf Best_Integer Best_Bound ItCnt Gap
0 0 7.0905 2 7.0905 43
0 0 7.0905 2 Disjcuts:1 46
0+ 0 nan nan 7.1260 7.0905 nan 0.50%
0+ 0 nan nan 7.1260 7.0905 nan 0.50%
0 0 7.0905 1 7.1260 7.0905 89 0.50%
0 0 cutoff 7.1260 92 0.00% 0 0
CPXPARAM_MIP_Cuts_Gomory-Disjunctive-LiftProj-MIRCut:Gomory 0
CPXPARAM_MIP_Cuts_Gomory-Disjunctive-LiftProj-MIRCut:Disjunctive 0
CPXPARAM_MIP_Cuts_Gomory-Disjunctive-LiftProj-MIRCut:LiftProj 0
CPXPARAM_MIP_Cuts_Gomory-Disjunctive-LiftProj-MIRCut:MIRCut 0
